Read MPS format model from file dat/rmp/DER_48_8192_20.mps
Reading time = 0.44 seconds
: 8240 rows, 28816 columns, 1251351 nonzeros
Gurobi Optimizer version 9.0.0 build v9.0.0rc2 (linux64)
Optimize a model with 8240 rows, 28816 columns and 1251351 nonzeros
Model fingerprint: 0x5c9d0c2f
Coefficient statistics:
  Matrix range     [8e-05, 1e+01]
  Objective range  [4e-01, 1e+03]
  Bounds range     [5e+04, 5e+04]
  RHS range        [1e+00, 1e+00]
Ordering time: 0.01s

Barrier statistics:
 AA' NZ     : 3.738e+05
 Factor NZ  : 4.653e+05 (roughly 20 MBytes of memory)
 Factor Ops : 2.736e+07 (less than 1 second per iteration)
 Threads    : 1

                  Objective                Residual
Iter       Primal          Dual         Primal    Dual     Compl     Time
   0   1.66966296e+09 -1.37215908e+08  2.52e+07 2.89e-02  9.80e+05     0s
   1   2.93211150e+07 -2.39074512e+07  3.60e+05 2.73e-12  1.49e+04     0s
   2   3.02020867e+06 -1.05734261e+07  3.70e+04 1.82e-12  1.81e+03     0s
   3   4.35831612e+04 -5.17060494e+06  1.31e+02 1.82e-12  1.85e+02     1s
   4   2.51119475e+04  1.50197971e+04  2.11e-10 1.82e-12  3.50e-01     1s
   5   2.48253541e+04  2.13446714e+04  1.03e-10 1.82e-12  1.21e-01     1s
   6   2.45423767e+04  2.37305905e+04  9.05e-11 4.55e-12  2.81e-02     1s
   7   2.43701459e+04  2.40761322e+04  2.33e-10 3.64e-12  1.02e-02     1s
   8   2.42476159e+04  2.41889203e+04  2.21e-10 2.73e-12  2.03e-03     1s
   9   2.42229896e+04  2.42070370e+04  1.37e-09 1.82e-12  5.53e-04     1s
  10   2.42174065e+04  2.42146376e+04  1.68e-09 1.82e-12  9.59e-05     1s
  11   2.42161565e+04  2.42155351e+04  2.95e-09 1.82e-12  2.15e-05     1s
  12   2.42159623e+04  2.42157255e+04  1.90e-09 1.82e-12  8.21e-06     1s
  13   2.42158848e+04  2.42157994e+04  2.65e-09 3.64e-12  2.96e-06     1s
  14   2.42158474e+04  2.42158162e+04  6.41e-09 1.82e-12  1.08e-06     2s
  15   2.42158270e+04  2.42158184e+04  3.33e-07 1.82e-12  2.99e-07     2s
  16   2.42158212e+04  2.42158188e+04  1.70e-07 1.82e-12  8.41e-08     2s
  17   2.42158198e+04  2.42158190e+04  7.56e-07 9.09e-13  2.60e-08     2s
  18   2.42158192e+04  2.42158191e+04  2.92e-07 1.82e-12  3.47e-09     2s

Barrier solved model in 18 iterations and 1.91 seconds
Optimal objective 2.42158192e+04

Solve time: 1.913493915
Barrier iterations: 18
